data/solutions/planning/wellformed/moderate/sequential/wellformed_moderate_instance56_cplex.sol
Elapsed time: 0.77
Nodes explored: -
Nodes left: -
Relative gap: -
Upper bound: 19368.0
Lower bound: -
C[0]=625.0
C[1]=625.0
C[2]=624.0
C[3]=624.0
C[4]=624.0
y[0]=0
y[1]=2
y[2]=3
y[3]=2
y[4]=1
y[5]=2
y[6]=2
y[7]=2
y[8]=0
y[9]=0
y[10]=0
y[11]=4
y[12]=1
y[13]=2
y[14]=0
y[15]=1
y[16]=4
y[17]=4
y[18]=1
y[19]=0
y[20]=3
y[21]=1
y[22]=3
y[23]=3
y[24]=3
y[25]=3
y[26]=4
y[27]=4
y[28]=4
y[29]=4
